c WARNING: for repeatability, setting FPU to use double precision
d VARIABLES            139150       
d CONSTRAINTS          505760       
c ============================[ Problem Statistics ]=============================
c |                                                                             |
c |  Number of variables:        139150                                         |
c |  Number of clauses:          505760                                         |
c |  Parse time:                   0.08 s                                       |
c |                                                                             |
c ============================[ Search Statistics ]==============================
c | Conflicts |          ORIGINAL         |          LEARNT          | Progress |
c |           |    Vars  Clauses Literals |    Limit  Clauses Lit/Cl |          |
c ===============================================================================
c |       100 |  108975   427538  1074157 |   156763      100     17 | 21.685 % |
c |       250 |  108975   427538  1074157 |   172440      250     10 | 21.685 % |
c |       475 |  108975   427538  1074157 |   189684      475     41 | 21.685 % |
c |       812 |  108975   427538  1074157 |   208652      812     33 | 21.685 % |
c |      1318 |  108975   427538  1074157 |   229518     1318     66 | 21.685 % |
c |      2077 |  108975   427538  1074157 |   252469     2077     73 | 21.685 % |
c |      3216 |  108975   427538  1074157 |   277716     3216     89 | 21.685 % |
c |      4924 |  108975   427538  1074157 |   305488     4924     82 | 21.685 % |
c |      7486 |  108975   427538  1074157 |   336037     7486    120 | 21.685 % |
c |     11330 |  108975   427538  1074157 |   369641    11330    128 | 21.685 % |
c |     17096 |  108975   427538  1074157 |   406605    17096    140 | 21.685 % |
c |     25745 |  108975   427538  1074157 |   447265    25745    142 | 21.685 % |
c |     38719 |  108975   427538  1074157 |   491992    38719    151 | 21.685 % |
c |     58180 |  108975   427538  1074157 |   541191    58180    154 | 21.685 % |
c |     87372 |  108975   427538  1074157 |   595310    87372    170 | 21.685 % |
c |    131161 |  108975   427538  1074157 |   654841   131161    182 | 21.685 % |
c |    196845 |  108975   427538  1074157 |   720326   196845    173 | 21.685 % |
c |    295371 |  108975   427538  1074157 |   792358   295371    178 | 21.685 % |
c |    443160 |  108975   427538  1074157 |   871594   443160    175 | 21.685 % |
c |    664843 |  108975   427538  1074157 |   958753   664843    181 | 21.685 % |
c |    997368 |  108975   427538  1074157 |  1054629   997368    177 | 21.685 % |
c |   1496156 |  108975   427538  1074157 |  1160092   421094    166 | 21.685 % |
c |   2244338 |  108975   427538  1074157 |  1276101  1169276    177 | 21.685 % |
c ===============================================================================
c restarts              : 4095
c conflicts             : 2384071        (1329 /sec)
c decisions             : 5305793        (0.00 % random) (2957 /sec)
c propagations          : 3373467647     (1880194 /sec)
c conflict literals     : 439330879      (40.84 % deleted)
d RESTARTS             4095
d FAILURES             2384071      
d NODES                5305793      
d BACKTRACKS           5305793      
d PROPAGATIONS         3373467647   
d NOGOODSIZE           184.28 
d MEMORY               1591.00 
d TIME                 1794.21 

s UNKNOWN
